(declare-const BAV1 Bool)
(declare-const BAV2 Bool)
(get-model)
(set-option :auto-config true)
(set-option :produce-models true)
(declare-datatypes () ((S A B C)))
(declare-const x S)
(declare-const y S)
(declare-const z S)
(declare-const u S)
(assert (distinct x y z))
(assert (= BAV1 (distinct x y z)))
(assert (= BAV2 (distinct x y z u)))
(check-sat)
(get-model)
(assert (distinct x y z u))
(check-sat)